c This Formular is generated by mcnf
c
c    horn? no 
c    forced? no 
c    mixed sat? no 
c    clause length = 3 
c
p cnf 20  91 
 -15 -4 -19 0
18 -16 -19 0
-20 6 -10 0
16 7 -5 0
9 20 -7 0
-6 -19 5 0
14 19 -18 0
-11 -20 10 0
-18 -1 -10 0
18 5 4 0
-20 -19 -14 0
10 -12 13 0
-3 -8 -2 0
17 -16 -19 0
4 -11 1 0
-17 13 -20 0
-5 18 9 0
19 -7 -13 0
-18 15 -7 0
-13 -6 11 0
-14 10 15 0
%
0

34 26 45 13 55 88 40 2 24 46 31 7 99 15 7 10 90 44 40 38
